\ENCODING=ISO-8859-1
\Problem name: cluster_small

Maximize
 obj1: 78 x0 + 84 x1 + 65 x2 + 55 x3
Subject To
 c0:  43 x0 + 51 x1 + 73 x2 + 87 x3 <= 370
 c1:  89 x0 + 31 x1 + 11 x2 + 86 x3 <= 241
 c2:  32 x0 + 98 x1 + 70 x2 + 36 x3 <= 239
 c3:  14 x0 + 2 x1 + 17 x2 + 53 x3 <= 312
 c4:  79 x0 + 51 x1 + 59 x2 + 41 x3 <= 32
 c5:  62 x0 + 47 x1 + 13 x2 + 85 x3 <= 382
 c6:  43 x0 + 35 x1 + 2 x2 + 18 x3 <= 48
 c7:  92 x0 + 76 x1 + 31 x2 + 93 x3 <= 285
 c8:  33 x0 + 90 x1 + 90 x2 + 72 x3 <= 137
 c9:  34 x0 + 13 x1 + 10 x2 + 29 x3 <= 67
 c10: 95 x0 + 17 x1 + 30 x2 + 14 x3 <= 393
 c11: 51 x0 + 77 x1 + 70 x2 + 84 x3 <= 176
 c12: 7 x0 + 82 x1 + 85 x2 + 26 x3 <= 282
Bounds
 0 <= x0 <= 1
 0 <= x1 <= 1
 0 <= x2 <= 1
 0 <= x3 <= 1
Binaries
 x0  x1  x2  x3 
End
